<?xml version = "1.0" encoding="UTF-8" standalone="yes"?>
<CPLEXSolution version="1.2">
 <header
   problemName="../models/pnasnet-mobile/redmi/ilp/subgraphs-cell_3.lp"
   solutionName="incumbent"
   solutionIndex="-1"
   objectiveValue="11.310455000000092"
   solutionTypeValue="3"
   solutionTypeString="primal"
   solutionStatusValue="101"
   solutionStatusString="integer optimal solution"
   solutionMethodString="mip"
   primalFeasible="1"
   dualFeasible="1"
   MIPNodes="0"
   MIPIterations="184"
   writeLevel="1"/>
 <quality
   epInt="1.0000000000000001e-05"
   epRHS="9.9999999999999995e-07"
   maxIntInfeas="0"
   maxPrimalInfeas="2.2204460492503131e-16"
   maxX="1008.5859"
   maxSlack="3001.763066"/>
 <linearConstraints>
  <constraint name="c1" index="0" slack="-11.310455000000092"/>
  <constraint name="c2" index="1" slack="-1004.9007550000001"/>
  <constraint name="c3" index="2" slack="-1011.310455"/>
  <constraint name="c4" index="3" slack="-0.76779800000008436"/>
  <constraint name="c5" index="4" slack="-1011.310455"/>
  <constraint name="c6" index="5" slack="-6.4427890000000616"/>
  <constraint name="c7" index="6" slack="-11.310455000000092"/>
  <constraint name="c8" index="7" slack="-1001.893994"/>
  <constraint name="c9" index="8" slack="-1011.310455"/>
  <constraint name="c10" index="9" slack="-4.6400890000002164"/>
  <constraint name="c11" index="10" slack="-11.310455000000092"/>
  <constraint name="c12" index="11" slack="-999.17761100000007"/>
  <constraint name="c13" index="12" slack="-1011.310455"/>
  <constraint name="c14" index="13" slack="-1.5856910000002244"/>
  <constraint name="c15" index="14" slack="-11.310455000000092"/>
  <constraint name="c16" index="15" slack="-999.97487000000024"/>
  <constraint name="c17" index="16" slack="-1011.310455"/>
  <constraint name="c18" index="17" slack="-2.4294130000001815"/>
  <constraint name="c19" index="18" slack="-11.310455000000092"/>
  <constraint name="c20" index="19" slack="-1001.1979830000001"/>
  <constraint name="c21" index="20" slack="-1011.310455"/>
  <constraint name="c22" index="21" slack="-1.1368683772161603e-13"/>
  <constraint name="c23" index="22" slack="-11.310455000000092"/>
  <constraint name="c24" index="23" slack="0"/>
  <constraint name="c25" index="24" slack="-11.310455000000092"/>
  <constraint name="c26" index="25" slack="-1008.3593550000001"/>
  <constraint name="c27" index="26" slack="-1011.310455"/>
  <constraint name="c28" index="27" slack="-6.4031550000000834"/>
  <constraint name="c29" index="28" slack="-1011.310455"/>
  <constraint name="c30" index="29" slack="-8.1349220000000741"/>
  <constraint name="c31" index="30" slack="-11.310455000000092"/>
  <constraint name="c32" index="31" slack="-1005.453655"/>
  <constraint name="c33" index="32" slack="0"/>
  <constraint name="c34" index="33" slack="0"/>
  <constraint name="c35" index="34" slack="0"/>
  <constraint name="c36" index="35" slack="0"/>
  <constraint name="c37" index="36" slack="0"/>
  <constraint name="c38" index="37" slack="0"/>
  <constraint name="c39" index="38" slack="0"/>
  <constraint name="c40" index="39" slack="0"/>
  <constraint name="c41" index="40" slack="-999"/>
  <constraint name="c42" index="41" slack="0"/>
  <constraint name="c43" index="42" slack="-2000.039634"/>
  <constraint name="c44" index="43" slack="-999"/>
  <constraint name="c45" index="44" slack="0"/>
  <constraint name="c46" index="45" slack="-2995.4908390000001"/>
  <constraint name="c47" index="46" slack="-999"/>
  <constraint name="c48" index="47" slack="0"/>
  <constraint name="c49" index="48" slack="-1998.236934"/>
  <constraint name="c50" index="49" slack="-999"/>
  <constraint name="c51" index="50" slack="0"/>
  <constraint name="c52" index="51" slack="-2992.7744560000001"/>
  <constraint name="c53" index="52" slack="-999"/>
  <constraint name="c54" index="53" slack="0"/>
  <constraint name="c55" index="54" slack="-2995.1825359999998"/>
  <constraint name="c56" index="55" slack="-999"/>
  <constraint name="c57" index="56" slack="0"/>
  <constraint name="c58" index="57" slack="-2993.571715"/>
  <constraint name="c59" index="58" slack="-999"/>
  <constraint name="c60" index="59" slack="0"/>
  <constraint name="c61" index="60" slack="-2996.0262579999999"/>
  <constraint name="c62" index="61" slack="-999"/>
  <constraint name="c63" index="62" slack="0"/>
  <constraint name="c64" index="63" slack="-2994.7948280000001"/>
  <constraint name="c65" index="64" slack="-1004.132957"/>
  <constraint name="c66" index="65" slack="0"/>
  <constraint name="c67" index="66" slack="-2002.1762000000001"/>
  <constraint name="c68" index="67" slack="-998.04324300000007"/>
  <constraint name="c69" index="68" slack="-1001.9562"/>
  <constraint name="c70" index="69" slack="0"/>
  <constraint name="c71" index="70" slack="-1001.9562"/>
  <constraint name="c72" index="71" slack="0"/>
  <constraint name="c73" index="72" slack="-999"/>
  <constraint name="c74" index="73" slack="0"/>
  <constraint name="c75" index="74" slack="-2001.7317669999998"/>
  <constraint name="c76" index="75" slack="-999"/>
  <constraint name="c77" index="76" slack="0"/>
  <constraint name="c78" index="77" slack="-2999.0504999999998"/>
  <constraint name="c79" index="78" slack="-999"/>
  <constraint name="c80" index="79" slack="0"/>
  <constraint name="c81" index="80" slack="-2996.7658329999999"/>
  <constraint name="c82" index="81" slack="-999"/>
  <constraint name="c83" index="82" slack="0"/>
  <constraint name="c84" index="83" slack="-1992.6328759999999"/>
  <constraint name="c85" index="84" slack="0"/>
  <constraint name="c86" index="85" slack="-999"/>
  <constraint name="c87" index="86" slack="-996.50516700000003"/>
  <constraint name="c88" index="87" slack="-998"/>
  <constraint name="c89" index="88" slack="-1"/>
  <constraint name="c90" index="89" slack="-2991.0426889999999"/>
  <constraint name="c91" index="90" slack="0"/>
  <constraint name="c92" index="91" slack="-999"/>
  <constraint name="c93" index="92" slack="-993.45076900000004"/>
  <constraint name="c94" index="93" slack="-998"/>
  <constraint name="c95" index="94" slack="-1"/>
  <constraint name="c96" index="95" slack="-2991.8399479999998"/>
  <constraint name="c97" index="96" slack="0"/>
  <constraint name="c98" index="97" slack="-999"/>
  <constraint name="c99" index="98" slack="-994.29449099999999"/>
  <constraint name="c100" index="99" slack="-998"/>
  <constraint name="c101" index="100" slack="-1"/>
  <constraint name="c102" index="101" slack="-2993.0630609999998"/>
  <constraint name="c103" index="102" slack="-5.6749909999999772"/>
  <constraint name="c104" index="103" slack="-1001.1261959999999"/>
  <constraint name="c105" index="104" slack="-1003.7182340000001"/>
  <constraint name="c106" index="105" slack="-1999.169439"/>
  <constraint name="c107" index="106" slack="-999"/>
  <constraint name="c108" index="107" slack="0"/>
  <constraint name="c109" index="108" slack="-2000.2244330000001"/>
  <constraint name="c110" index="109" slack="-999"/>
  <constraint name="c111" index="110" slack="0"/>
  <constraint name="c112" index="111" slack="-2998.2682330000002"/>
  <constraint name="c113" index="112" slack="0"/>
  <constraint name="c114" index="113" slack="-997.31873299999995"/>
  <constraint name="c115" index="114" slack="0"/>
  <constraint name="c116" index="115" slack="-997.31873299999995"/>
  <constraint name="c117" index="116" slack="-999"/>
  <constraint name="c118" index="117" slack="0"/>
  <constraint name="c119" index="118" slack="-2998.4579660000004"/>
  <constraint name="c120" index="119" slack="-999"/>
  <constraint name="c121" index="120" slack="0"/>
  <constraint name="c122" index="121" slack="-1992.6328759999999"/>
  <constraint name="c123" index="122" slack="0"/>
  <constraint name="c124" index="123" slack="-999"/>
  <constraint name="c125" index="124" slack="0"/>
  <constraint name="c126" index="125" slack="-998"/>
  <constraint name="c127" index="126" slack="-1"/>
  <constraint name="c128" index="127" slack="-1993.7590720000001"/>
  <constraint name="c129" index="128" slack="-2.2106760000000349"/>
  <constraint name="c130" index="129" slack="-996.748198"/>
  <constraint name="c131" index="130" slack="0"/>
  <constraint name="c132" index="131" slack="-994.53752199999997"/>
  <constraint name="c133" index="132" slack="0"/>
  <constraint name="c134" index="133" slack="-999"/>
  <constraint name="c135" index="134" slack="-995.98662399999989"/>
  <constraint name="c136" index="135" slack="-998"/>
  <constraint name="c137" index="136" slack="-1"/>
  <constraint name="c138" index="137" slack="-2993.0630609999998"/>
  <constraint name="c139" index="138" slack="-3.8722910000000184"/>
  <constraint name="c140" index="139" slack="-998.40981299999999"/>
  <constraint name="c141" index="140" slack="-1001.9155340000001"/>
  <constraint name="c142" index="141" slack="-1996.4530560000001"/>
  <constraint name="c143" index="142" slack="-999"/>
  <constraint name="c144" index="143" slack="0"/>
  <constraint name="c145" index="144" slack="-2001.9165659999999"/>
  <constraint name="c146" index="145" slack="-999"/>
  <constraint name="c147" index="146" slack="0"/>
  <constraint name="c148" index="147" slack="-2998.2682330000002"/>
  <constraint name="c149" index="148" slack="-1.6921330000000125"/>
  <constraint name="c150" index="149" slack="-999.01086599999996"/>
  <constraint name="c151" index="150" slack="0"/>
  <constraint name="c152" index="151" slack="-997.31873299999995"/>
  <constraint name="c153" index="152" slack="-999"/>
  <constraint name="c154" index="153" slack="0"/>
  <constraint name="c155" index="154" slack="-2002.471342"/>
  <constraint name="c156" index="155" slack="-999"/>
  <constraint name="c157" index="156" slack="0"/>
  <constraint name="c158" index="157" slack="-1996.1277089999999"/>
  <constraint name="c159" index="158" slack="0"/>
  <constraint name="c160" index="159" slack="-999"/>
  <constraint name="c161" index="160" slack="-4.0133760000000347"/>
  <constraint name="c162" index="161" slack="-998"/>
  <constraint name="c163" index="162" slack="-1"/>
  <constraint name="c164" index="163" slack="-1997.253905"/>
  <constraint name="c165" index="164" slack="0"/>
  <constraint name="c166" index="165" slack="-999"/>
  <constraint name="c167" index="166" slack="0"/>
  <constraint name="c168" index="167" slack="-998"/>
  <constraint name="c169" index="168" slack="-1"/>
  <constraint name="c170" index="169" slack="-2996.557894"/>
  <constraint name="c171" index="170" slack="-0.8178930000000264"/>
  <constraint name="c172" index="171" slack="-999.20707200000004"/>
  <constraint name="c173" index="172" slack="-998.8611360000001"/>
  <constraint name="c174" index="173" slack="-1997.2503150000002"/>
  <constraint name="c175" index="174" slack="-999"/>
  <constraint name="c176" index="175" slack="0"/>
  <constraint name="c177" index="176" slack="-2005.929942"/>
  <constraint name="c178" index="177" slack="-999"/>
  <constraint name="c179" index="178" slack="0"/>
  <constraint name="c180" index="179" slack="-3001.763066"/>
  <constraint name="c181" index="180" slack="-5.7055090000000064"/>
  <constraint name="c182" index="181" slack="-1003.024242"/>
  <constraint name="c183" index="182" slack="-3.4948329999999714"/>
  <constraint name="c184" index="183" slack="-1000.8135659999999"/>
  <constraint name="c185" index="184" slack="-999"/>
  <constraint name="c186" index="185" slack="0"/>
  <constraint name="c187" index="186" slack="-2000.2606659999999"/>
  <constraint name="c188" index="187" slack="-999"/>
  <constraint name="c189" index="188" slack="0"/>
  <constraint name="c190" index="189" slack="-1994.3646429999999"/>
  <constraint name="c191" index="190" slack="0"/>
  <constraint name="c192" index="191" slack="-999"/>
  <constraint name="c193" index="192" slack="-1.8026999999999997"/>
  <constraint name="c194" index="193" slack="-998"/>
  <constraint name="c195" index="194" slack="-1"/>
  <constraint name="c196" index="195" slack="-1995.4908390000001"/>
  <constraint name="c197" index="196" slack="0"/>
  <constraint name="c198" index="197" slack="-999"/>
  <constraint name="c199" index="198" slack="2.2204460492503131e-16"/>
  <constraint name="c200" index="199" slack="-998"/>
  <constraint name="c201" index="200" slack="-1"/>
  <constraint name="c202" index="201" slack="-1992.7744560000001"/>
  <constraint name="c203" index="202" slack="0"/>
  <constraint name="c204" index="203" slack="-999"/>
  <constraint name="c205" index="204" slack="-996.94560200000001"/>
  <constraint name="c206" index="205" slack="-998"/>
  <constraint name="c207" index="206" slack="-1"/>
  <constraint name="c208" index="207" slack="-1993.571715"/>
  <constraint name="c209" index="208" slack="-1.6616149999999834"/>
  <constraint name="c210" index="209" slack="-1000.4301850000001"/>
  <constraint name="c211" index="210" slack="-999.70485800000006"/>
  <constraint name="c212" index="211" slack="-1998.4734280000002"/>
  <constraint name="c213" index="212" slack="-1003.7192659999999"/>
  <constraint name="c214" index="213" slack="-1.7630659999999807"/>
  <constraint name="c215" index="214" slack="-1001.9562"/>
  <constraint name="c216" index="215" slack="0"/>
  <constraint name="c217" index="216" slack="-3.4948329999999714"/>
  <constraint name="c218" index="217" slack="-1000.8135659999999"/>
  <constraint name="c219" index="218" slack="-1.7317669999999907"/>
  <constraint name="c220" index="219" slack="-999.05049999999994"/>
  <constraint name="c221" index="220" slack="-999"/>
  <constraint name="c222" index="221" slack="0"/>
  <constraint name="c223" index="222" slack="-2995.1323339999999"/>
  <constraint name="c224" index="223" slack="-999"/>
  <constraint name="c225" index="224" slack="0"/>
  <constraint name="c226" index="225" slack="-1990.583539"/>
  <constraint name="c227" index="226" slack="-999"/>
  <constraint name="c228" index="227" slack="0"/>
  <constraint name="c229" index="228" slack="-2993.3296339999997"/>
  <constraint name="c230" index="229" slack="-999"/>
  <constraint name="c231" index="230" slack="0"/>
  <constraint name="c232" index="231" slack="-1987.867156"/>
  <constraint name="c233" index="232" slack="-999"/>
  <constraint name="c234" index="233" slack="0"/>
  <constraint name="c235" index="234" slack="-2990.2752359999999"/>
  <constraint name="c236" index="235" slack="-999"/>
  <constraint name="c237" index="236" slack="0"/>
  <constraint name="c238" index="237" slack="-1988.6644150000002"/>
  <constraint name="c239" index="238" slack="-999"/>
  <constraint name="c240" index="239" slack="0"/>
  <constraint name="c241" index="240" slack="-2996.8244669999999"/>
  <constraint name="c242" index="241" slack="-999"/>
  <constraint name="c243" index="242" slack="0"/>
  <constraint name="c244" index="243" slack="-2994.1432"/>
  <constraint name="c245" index="244" slack="-999"/>
  <constraint name="c246" index="245" slack="0"/>
  <constraint name="c247" index="246" slack="-2993.5903000000003"/>
  <constraint name="c248" index="247" slack="-999"/>
  <constraint name="c249" index="248" slack="0"/>
  <constraint name="c250" index="249" slack="-1989.457343"/>
  <constraint name="c251" index="250" slack="-999"/>
  <constraint name="c252" index="251" slack="0"/>
  <constraint name="c253" index="252" slack="-1997.0489"/>
  <constraint name="c254" index="253" slack="-999"/>
  <constraint name="c255" index="254" slack="0"/>
  <constraint name="c256" index="255" slack="-1995.0926999999999"/>
 </linearConstraints>
 <variables>
  <variable name="tt" index="0" value="11.310455000000092"/>
  <variable name="s_1_1" index="1" value="0"/>
  <variable name="t_1_1" index="2" value="4.9072999999999638"/>
  <variable name="s_1_7" index="3" value="0"/>
  <variable name="s_2_1" index="4" value="1"/>
  <variable name="t_2_1" index="5" value="4.9072999999999638"/>
  <variable name="s_2_7" index="6" value="1"/>
  <variable name="s_1_2" index="7" value="1"/>
  <variable name="t_1_2" index="8" value="3.1755329999999731"/>
  <variable name="s_1_8" index="9" value="1"/>
  <variable name="s_2_2" index="10" value="-0"/>
  <variable name="t_2_2" index="11" value="3.1755329999999731"/>
  <variable name="s_2_8" index="12" value="-0"/>
  <variable name="s_1_3" index="13" value="1"/>
  <variable name="t_1_3" index="14" value="4.8676659999999732"/>
  <variable name="s_2_3" index="15" value="-0"/>
  <variable name="t_2_3" index="16" value="3.1755329999999731"/>
  <variable name="s_1_4" index="17" value="1"/>
  <variable name="t_1_4" index="18" value="8.8810420000000079"/>
  <variable name="s_2_4" index="19" value="0"/>
  <variable name="t_2_4" index="20" value="6.6703659999999161"/>
  <variable name="s_1_5" index="21" value="1"/>
  <variable name="t_1_5" index="22" value="6.6703659999999729"/>
  <variable name="s_2_5" index="23" value="0"/>
  <variable name="t_2_5" index="24" value="4.9072999999999638"/>
  <variable name="s_1_6" index="25" value="1"/>
  <variable name="t_1_6" index="26" value="10.542656999999977"/>
  <variable name="s_2_6" index="27" value="0"/>
  <variable name="t_2_6" index="28" value="1008.5859"/>
  <variable name="t_1_7" index="29" value="0"/>
  <variable name="t_2_7" index="30" value="0"/>
  <variable name="t_1_8" index="31" value="0"/>
  <variable name="t_2_8" index="32" value="0"/>
  <variable name="r_1_1_2" index="33" value="1"/>
  <variable name="u_1_1_2" index="34" value="1"/>
  <variable name="r_2_1_2" index="35" value="1"/>
  <variable name="u_2_1_2" index="36" value="-0"/>
  <variable name="r_1_1_3" index="37" value="1"/>
  <variable name="u_1_1_3" index="38" value="1"/>
  <variable name="r_2_1_3" index="39" value="1"/>
  <variable name="u_2_1_3" index="40" value="-0"/>
  <variable name="r_1_1_4" index="41" value="1"/>
  <variable name="u_1_1_4" index="42" value="-0"/>
  <variable name="r_2_1_4" index="43" value="1"/>
  <variable name="u_2_1_4" index="44" value="-0"/>
  <variable name="r_1_1_5" index="45" value="1"/>
  <variable name="u_1_1_5" index="46" value="-0"/>
  <variable name="r_2_1_5" index="47" value="1"/>
  <variable name="u_2_1_5" index="48" value="-0"/>
  <variable name="r_1_1_8" index="49" value="1"/>
  <variable name="u_1_1_8" index="50" value="1"/>
  <variable name="r_2_1_8" index="51" value="1"/>
  <variable name="u_2_1_8" index="52" value="-0"/>
  <variable name="r_1_2_3" index="53" value="0"/>
  <variable name="u_1_2_3" index="54" value="-0"/>
  <variable name="r_2_2_3" index="55" value="1"/>
  <variable name="u_2_2_3" index="56" value="-0"/>
  <variable name="r_1_2_4" index="57" value="0"/>
  <variable name="u_1_2_4" index="58" value="-0"/>
  <variable name="r_2_2_4" index="59" value="1"/>
  <variable name="u_2_2_4" index="60" value="-0"/>
  <variable name="r_1_2_5" index="61" value="0"/>
  <variable name="u_1_2_5" index="62" value="-0"/>
  <variable name="r_2_2_5" index="63" value="1"/>
  <variable name="u_2_2_5" index="64" value="-0"/>
  <variable name="r_1_2_7" index="65" value="1"/>
  <variable name="u_1_2_7" index="66" value="1"/>
  <variable name="r_2_2_7" index="67" value="1"/>
  <variable name="u_2_2_7" index="68" value="-0"/>
  <variable name="r_1_3_5" index="69" value="0"/>
  <variable name="u_1_3_5" index="70" value="-0"/>
  <variable name="r_2_3_5" index="71" value="1"/>
  <variable name="u_2_3_5" index="72" value="-0"/>
  <variable name="r_1_3_7" index="73" value="1"/>
  <variable name="u_1_3_7" index="74" value="1"/>
  <variable name="r_2_3_7" index="75" value="1"/>
  <variable name="u_2_3_7" index="76" value="-0"/>
  <variable name="r_1_4_5" index="77" value="0"/>
  <variable name="u_1_4_5" index="78" value="1"/>
  <variable name="r_2_4_5" index="79" value="1"/>
  <variable name="u_2_4_5" index="80" value="-0"/>
  <variable name="r_1_4_7" index="81" value="1"/>
  <variable name="u_1_4_7" index="82" value="1"/>
  <variable name="r_2_4_7" index="83" value="1"/>
  <variable name="u_2_4_7" index="84" value="-0"/>
  <variable name="r_1_7_8" index="85" value="1"/>
  <variable name="u_1_7_8" index="86" value="-0"/>
  <variable name="r_2_7_8" index="87" value="1"/>
  <variable name="u_2_7_8" index="88" value="-0"/>
 </variables>
</CPLEXSolution>
